(declare-fun C1 () Real)
(declare-fun C2 () Real)
(declare-fun C3 () Real)
(declare-fun C4 () Real)
(declare-fun C5 () Real)
(declare-fun C6 () Real)
(declare-fun C7 () Real)
(declare-fun C8 () Real)
(declare-fun C9 () Real)
(declare-fun C10 () Real)
(declare-fun y () Real)
(assert ( and ( or  (<=  (+  (* 4 C1)  (* 2 C2)  (* 2 C3)  (* 1 C4)  (* 1 C5)  (* 1 C6)  (* 1 C7)  (* 1 C8)  (* 1 C9)  (* 1 C10) ) 504 )  (<=  (+  (* 5 C1)  (* 2 C2)  (* 2 C3)  (* 1 C4)  (* 1 C5)  (* 1 C6)  (* 1 C7)  (* 1 C8)  (* 1 C9)  (* 1 C10) ) 526 )  (<=  (+  (* 5 C1)  (* 3 C2)  (* 2 C3)  (* 1 C4)  (* 1 C5)  (* 1 C6)  (* 1 C7)  (* 1 C8)  (* 1 C9)  (* 1 C10) ) 630 )  (<=  (+  (* 6 C1)  (* 3 C2)  (* 2 C3)  (* 1 C4)  (* 1 C5)  (* 1 C6)  (* 1 C7)  (* 1 C8)  (* 1 C9)  (* 1 C10) ) 690 )  (<=  (+  (* 6 C1)  (* 3 C2)  (* 3 C3)  (* 1 C4)  (* 1 C5)  (* 1 C6)  (* 1 C7)  (* 1 C8)  (* 1 C9)  (* 1 C10) ) 703 )  (<=  (+  (* 6 C1)  (* 3 C2)  (* 3 C3)  (* 2 C4)  (* 1 C5)  (* 1 C6)  (* 1 C7)  (* 1 C8)  (* 1 C9)  (* 1 C10) ) 756 )  (<=  (+  (* 7 C1)  (* 3 C2)  (* 3 C3)  (* 2 C4)  (* 1 C5)  (* 1 C6)  (* 1 C7)  (* 1 C8)  (* 1 C9)  (* 1 C10) ) 789 )  (<=  (+  (* 8 C1)  (* 4 C2)  (* 3 C3)  (* 2 C4)  (* 1 C5)  (* 1 C6)  (* 1 C7)  (* 1 C8)  (* 1 C9)  (* 1 C10) ) 1008 )  (<=  (+  (* 9 C1)  (* 4 C2)  (* 3 C3)  (* 2 C4)  (* 1 C5)  (* 1 C6)  (* 1 C7)  (* 1 C8)  (* 1 C9)  (* 1 C10) ) 1035 )  (<=  (+  (* 9 C1)  (* 4 C2)  (* 4 C3)  (* 2 C4)  (* 1 C5)  (* 1 C6)  (* 1 C7)  (* 1 C8)  (* 1 C9)  (* 1 C10) ) 1052 )  (<=  (+  (* 9 C1)  (* 5 C2)  (* 4 C3)  (* 2 C4)  (* 1 C5)  (* 1 C6)  (* 1 C7)  (* 1 C8)  (* 1 C9)  (* 1 C10) ) 1134 )  (<=  (+  (* 10 C1)  (* 5 C2)  (* 4 C3)  (* 2 C4)  (* 1 C5)  (* 1 C6)  (* 1 C7)  (* 1 C8)  (* 1 C9)  (* 1 C10) ) 1212 )  (<=  (+  (* 10 C1)  (* 5 C2)  (* 4 C3)  (* 2 C4)  (* 2 C5)  (* 1 C6)  (* 1 C7)  (* 1 C8)  (* 1 C9)  (* 1 C10) ) 1260 )  (<=  (+  (* 11 C1)  (* 5 C2)  (* 4 C3)  (* 2 C4)  (* 2 C5)  (* 1 C6)  (* 1 C7)  (* 1 C8)  (* 1 C9)  (* 1 C10) ) 1315 )  (<=  (+  (* 11 C1)  (* 6 C2)  (* 4 C3)  (* 2 C4)  (* 2 C5)  (* 1 C6)  (* 1 C7)  (* 1 C8)  (* 1 C9)  (* 1 C10) ) 1380 )  (<=  (+  (* 11 C1)  (* 6 C2)  (* 5 C3)  (* 2 C4)  (* 2 C5)  (* 1 C6)  (* 1 C7)  (* 1 C8)  (* 1 C9)  (* 1 C10) ) 1386 )  (<=  (+  (* 12 C1)  (* 6 C2)  (* 5 C3)  (* 2 C4)  (* 2 C5)  (* 1 C6)  (* 1 C7)  (* 1 C8)  (* 1 C9)  (* 1 C10) ) 1406 )  (<=  (+  (* 12 C1)  (* 6 C2)  (* 5 C3)  (* 3 C4)  (* 2 C5)  (* 1 C6)  (* 1 C7)  (* 1 C8)  (* 1 C9)  (* 1 C10) ) 1512 )  (<=  (+  (* 13 C1)  (* 6 C2)  (* 5 C3)  (* 3 C4)  (* 2 C5)  (* 1 C6)  (* 1 C7)  (* 1 C8)  (* 1 C9)  (* 1 C10) ) 1578 )  (<=  (+  (* 13 C1)  (* 7 C2)  (* 5 C3)  (* 3 C4)  (* 2 C5)  (* 1 C6)  (* 1 C7)  (* 1 C8)  (* 1 C9)  (* 1 C10) ) 1638 )  (<=  (+  (* 14 C1)  (* 7 C2)  (* 5 C3)  (* 3 C4)  (* 2 C5)  (* 1 C6)  (* 1 C7)  (* 1 C8)  (* 1 C9)  (* 1 C10) ) 1725 )  (<=  (+  (* 14 C1)  (* 7 C2)  (* 6 C3)  (* 3 C4)  (* 2 C5)  (* 1 C6)  (* 1 C7)  (* 1 C8)  (* 1 C9)  (* 1 C10) ) 1764 )  (<=  (+  (* 15 C1)  (* 7 C2)  (* 6 C3)  (* 3 C4)  (* 2 C5)  (* 1 C6)  (* 1 C7)  (* 1 C8)  (* 1 C9)  (* 1 C10) ) 1798 )  (<=  (+  (* 15 C1)  (* 7 C2)  (* 6 C3)  (* 3 C4)  (* 2 C5)  (* 2 C6)  (* 1 C7)  (* 1 C8)  (* 1 C9)  (* 1 C10) ) 1841 )  (<=  (+  (* 16 C1)  (* 8 C2)  (* 6 C3)  (* 3 C4)  (* 2 C5)  (* 2 C6)  (* 1 C7)  (* 1 C8)  (* 1 C9)  (* 1 C10) ) 2016 )  (<=  (+  (* 17 C1)  (* 8 C2)  (* 6 C3)  (* 3 C4)  (* 2 C5)  (* 2 C6)  (* 1 C7)  (* 1 C8)  (* 1 C9)  (* 1 C10) ) 2070 )  (<=  (+  (* 17 C1)  (* 8 C2)  (* 7 C3)  (* 3 C4)  (* 2 C5)  (* 2 C6)  (* 1 C7)  (* 1 C8)  (* 1 C9)  (* 1 C10) ) 2104 )  (<=  (+  (* 17 C1)  (* 9 C2)  (* 7 C3)  (* 3 C4)  (* 2 C5)  (* 2 C6)  (* 1 C7)  (* 1 C8)  (* 1 C9)  (* 1 C10) ) 2109 )  (<=  (+  (* 18 C1)  (* 9 C2)  (* 7 C3)  (* 4 C4)  (* 2 C5)  (* 2 C6)  (* 1 C7)  (* 1 C8)  (* 1 C9)  (* 1 C10) ) 2268 )  (<=  (+  (* 19 C1)  (* 9 C2)  (* 7 C3)  (* 4 C4)  (* 2 C5)  (* 2 C6)  (* 1 C7)  (* 1 C8)  (* 1 C9)  (* 1 C10) ) 2367 )  (<=  (+  (* 19 C1)  (* 10 C2)  (* 7 C3)  (* 4 C4)  (* 2 C5)  (* 2 C6)  (* 1 C7)  (* 1 C8)  (* 1 C9)  (* 1 C10) ) 2394 )  (<=  (+  (* 20 C1)  (* 10 C2)  (* 7 C3)  (* 4 C4)  (* 2 C5)  (* 2 C6)  (* 1 C7)  (* 1 C8)  (* 1 C9)  (* 1 C10) ) 2415 )  (<=  (+  (* 20 C1)  (* 10 C2)  (* 8 C3)  (* 4 C4)  (* 2 C5)  (* 2 C6)  (* 1 C7)  (* 1 C8)  (* 1 C9)  (* 1 C10) ) 2424 )  (<=  (+  (* 20 C1)  (* 10 C2)  (* 8 C3)  (* 4 C4)  (* 3 C5)  (* 2 C6)  (* 1 C7)  (* 1 C8)  (* 1 C9)  (* 1 C10) ) 2520 )  (<=  (+  (* 21 C1)  (* 10 C2)  (* 8 C3)  (* 4 C4)  (* 3 C5)  (* 2 C6)  (* 1 C7)  (* 1 C8)  (* 1 C9)  (* 1 C10) ) 2630 )  (<=  (+  (* 21 C1)  (* 11 C2)  (* 8 C3)  (* 4 C4)  (* 3 C5)  (* 2 C6)  (* 1 C7)  (* 1 C8)  (* 1 C9)  (* 1 C10) ) 2646 )  (<=  (+  (* 22 C1)  (* 11 C2)  (* 8 C3)  (* 4 C4)  (* 3 C5)  (* 2 C6)  (* 1 C7)  (* 1 C8)  (* 1 C9)  (* 1 C10) ) 2760 )  (<=  (+  (* 22 C1)  (* 11 C2)  (* 9 C3)  (* 4 C4)  (* 3 C5)  (* 2 C6)  (* 1 C7)  (* 1 C8)  (* 1 C9)  (* 1 C10) ) 2772 )  (<=  (+  (* 23 C1)  (* 11 C2)  (* 9 C3)  (* 4 C4)  (* 3 C5)  (* 2 C6)  (* 1 C7)  (* 1 C8)  (* 1 C9)  (* 1 C10) ) 2812 )  (<=  (+  (* 23 C1)  (* 11 C2)  (* 9 C3)  (* 5 C4)  (* 3 C5)  (* 2 C6)  (* 1 C7)  (* 1 C8)  (* 1 C9)  (* 1 C10) ) 2893 )  (<=  (+  (* 23 C1)  (* 12 C2)  (* 9 C3)  (* 5 C4)  (* 3 C5)  (* 2 C6)  (* 1 C7)  (* 1 C8)  (* 1 C9)  (* 1 C10) ) 2897 )  (<=  (+  (* 27 C1)  (* 13 C2)  (* 10 C3)  (* 5 C4)  (* 3 C5)  (* 2 C6)  (* 2 C7)  (* 1 C8)  (* 1 C9)  (* 1 C10) ) 3402 )  (<=  (+  (* 28 C1)  (* 13 C2)  (* 10 C3)  (* 5 C4)  (* 3 C5)  (* 2 C6)  (* 2 C7)  (* 1 C8)  (* 1 C9)  (* 1 C10) ) 3419 )  (<=  (+  (* 28 C1)  (* 14 C2)  (* 10 C3)  (* 5 C4)  (* 3 C5)  (* 2 C6)  (* 2 C7)  (* 1 C8)  (* 1 C9)  (* 1 C10) ) 3450 )  (<=  (+  (* 28 C1)  (* 14 C2)  (* 11 C3)  (* 5 C4)  (* 3 C5)  (* 2 C6)  (* 2 C7)  (* 1 C8)  (* 1 C9)  (* 1 C10) ) 3515 )  (<=  (+  (* 28 C1)  (* 14 C2)  (* 11 C3)  (* 6 C4)  (* 3 C5)  (* 2 C6)  (* 2 C7)  (* 1 C8)  (* 1 C9)  (* 1 C10) ) 3528 )  (<=  (+  (* 29 C1)  (* 14 C2)  (* 11 C3)  (* 6 C4)  (* 3 C5)  (* 2 C6)  (* 2 C7)  (* 1 C8)  (* 1 C9)  (* 1 C10) ) 3596 )  (<=  (+  (* 29 C1)  (* 14 C2)  (* 11 C3)  (* 6 C4)  (* 3 C5)  (* 3 C6)  (* 2 C7)  (* 1 C8)  (* 1 C9)  (* 1 C10) ) 3636 )  (<=  (+  (* 29 C1)  (* 14 C2)  (* 11 C3)  (* 6 C4)  (* 4 C5)  (* 3 C6)  (* 2 C7)  (* 1 C8)  (* 1 C9)  (* 1 C10) ) 3654 )  (<=  (+  (* 30 C1)  (* 14 C2)  (* 11 C3)  (* 6 C4)  (* 4 C5)  (* 3 C6)  (* 2 C7)  (* 1 C8)  (* 1 C9)  (* 1 C10) ) 3682 )  (<=  (+  (* 30 C1)  (* 15 C2)  (* 11 C3)  (* 6 C4)  (* 4 C5)  (* 3 C6)  (* 2 C7)  (* 1 C8)  (* 1 C9)  (* 1 C10) ) 3780 )  (<=  (+  (* 31 C1)  (* 15 C2)  (* 11 C3)  (* 6 C4)  (* 4 C5)  (* 3 C6)  (* 2 C7)  (* 1 C8)  (* 1 C9)  (* 1 C10) ) 3795 )  (<=  (+  (* 31 C1)  (* 15 C2)  (* 12 C3)  (* 6 C4)  (* 4 C5)  (* 3 C6)  (* 2 C7)  (* 1 C8)  (* 1 C9)  (* 1 C10) ) 3906 )  (<=  (+  (* 32 C1)  (* 15 C2)  (* 12 C3)  (* 6 C4)  (* 4 C5)  (* 3 C6)  (* 2 C7)  (* 1 C8)  (* 1 C9)  (* 1 C10) ) 3945 )  (<=  (+  (* 32 C1)  (* 16 C2)  (* 12 C3)  (* 6 C4)  (* 4 C5)  (* 3 C6)  (* 2 C7)  (* 1 C8)  (* 1 C9)  (* 1 C10) ) 4032 )  (<=  (+  (* 33 C1)  (* 16 C2)  (* 12 C3)  (* 6 C4)  (* 4 C5)  (* 3 C6)  (* 2 C7)  (* 1 C8)  (* 1 C9)  (* 1 C10) ) 4115 )  (<=  (+  (* 33 C1)  (* 16 C2)  (* 12 C3)  (* 6 C4)  (* 4 C5)  (* 3 C6)  (* 2 C7)  (* 2 C8)  (* 1 C9)  (* 1 C10) ) 4140 )  (<=  (+  (* 33 C1)  (* 16 C2)  (* 13 C3)  (* 6 C4)  (* 4 C5)  (* 3 C6)  (* 2 C7)  (* 2 C8)  (* 1 C9)  (* 1 C10) ) 4158 )  (<=  (+  (* 34 C1)  (* 16 C2)  (* 13 C3)  (* 6 C4)  (* 4 C5)  (* 3 C6)  (* 2 C7)  (* 2 C8)  (* 1 C9)  (* 1 C10) ) 4208 )  (<=  (+  (* 34 C1)  (* 17 C2)  (* 13 C3)  (* 6 C4)  (* 4 C5)  (* 3 C6)  (* 2 C7)  (* 2 C8)  (* 1 C9)  (* 1 C10) ) 4218 )  (<=  (+  (* 35 C1)  (* 17 C2)  (* 13 C3)  (* 7 C4)  (* 4 C5)  (* 3 C6)  (* 2 C7)  (* 2 C8)  (* 1 C9)  (* 1 C10) ) 4410 )  (<=  (+  (* 36 C1)  (* 17 C2)  (* 13 C3)  (* 7 C4)  (* 4 C5)  (* 3 C6)  (* 2 C7)  (* 2 C8)  (* 1 C9)  (* 1 C10) ) 4471 )  (<=  (+  (* 36 C1)  (* 18 C2)  (* 13 C3)  (* 7 C4)  (* 4 C5)  (* 3 C6)  (* 2 C7)  (* 2 C8)  (* 1 C9)  (* 1 C10) ) 4485 )  (<=  (+  (* 37 C1)  (* 18 C2)  (* 14 C3)  (* 7 C4)  (* 4 C5)  (* 3 C6)  (* 2 C7)  (* 2 C8)  (* 1 C9)  (* 1 C10) ) 4662 )  (<=  (+  (* 38 C1)  (* 18 C2)  (* 14 C3)  (* 7 C4)  (* 4 C5)  (* 3 C6)  (* 2 C7)  (* 2 C8)  (* 1 C9)  (* 1 C10) ) 4714 )  (<=  (+  (* 38 C1)  (* 18 C2)  (* 14 C3)  (* 7 C4)  (* 4 C5)  (* 3 C6)  (* 2 C7)  (* 2 C8)  (* 2 C9)  (* 1 C10) ) 4734 )  (<=  (+  (* 38 C1)  (* 19 C2)  (* 14 C3)  (* 7 C4)  (* 4 C5)  (* 3 C6)  (* 2 C7)  (* 2 C8)  (* 2 C9)  (* 1 C10) ) 4783 ) ) ( or  (<=  (+  (* 4 C1)  (* 2 C2)  (* 2 C3)  (* 1 C4)  (* 1 C5)  (* 1 C6)  (* 1 C7)  (* 1 C8)  (* 1 C9) ) 504 )  (<=  (+  (* 5 C1)  (* 2 C2)  (* 2 C3)  (* 1 C4)  (* 1 C5)  (* 1 C6)  (* 1 C7)  (* 1 C8)  (* 1 C9) ) 526 )  (<=  (+  (* 5 C1)  (* 3 C2)  (* 2 C3)  (* 1 C4)  (* 1 C5)  (* 1 C6)  (* 1 C7)  (* 1 C8)  (* 1 C9) ) 630 )  (<=  (+  (* 6 C1)  (* 3 C2)  (* 2 C3)  (* 1 C4)  (* 1 C5)  (* 1 C6)  (* 1 C7)  (* 1 C8)  (* 1 C9) ) 690 )  (<=  (+  (* 6 C1)  (* 3 C2)  (* 3 C3)  (* 1 C4)  (* 1 C5)  (* 1 C6)  (* 1 C7)  (* 1 C8)  (* 1 C9) ) 703 )  (<=  (+  (* 6 C1)  (* 3 C2)  (* 3 C3)  (* 2 C4)  (* 1 C5)  (* 1 C6)  (* 1 C7)  (* 1 C8)  (* 1 C9) ) 756 )  (<=  (+  (* 7 C1)  (* 3 C2)  (* 3 C3)  (* 2 C4)  (* 1 C5)  (* 1 C6)  (* 1 C7)  (* 1 C8)  (* 1 C9) ) 789 )  (<=  (+  (* 8 C1)  (* 4 C2)  (* 3 C3)  (* 2 C4)  (* 1 C5)  (* 1 C6)  (* 1 C7)  (* 1 C8)  (* 1 C9) ) 1008 )  (<=  (+  (* 9 C1)  (* 4 C2)  (* 3 C3)  (* 2 C4)  (* 1 C5)  (* 1 C6)  (* 1 C7)  (* 1 C8)  (* 1 C9) ) 1035 )  (<=  (+  (* 9 C1)  (* 4 C2)  (* 4 C3)  (* 2 C4)  (* 1 C5)  (* 1 C6)  (* 1 C7)  (* 1 C8)  (* 1 C9) ) 1052 )  (<=  (+  (* 9 C1)  (* 5 C2)  (* 4 C3)  (* 2 C4)  (* 1 C5)  (* 1 C6)  (* 1 C7)  (* 1 C8)  (* 1 C9) ) 1134 )  (<=  (+  (* 10 C1)  (* 5 C2)  (* 4 C3)  (* 2 C4)  (* 1 C5)  (* 1 C6)  (* 1 C7)  (* 1 C8)  (* 1 C9) ) 1212 )  (<=  (+  (* 10 C1)  (* 5 C2)  (* 4 C3)  (* 2 C4)  (* 2 C5)  (* 1 C6)  (* 1 C7)  (* 1 C8)  (* 1 C9) ) 1260 )  (<=  (+  (* 11 C1)  (* 5 C2)  (* 4 C3)  (* 2 C4)  (* 2 C5)  (* 1 C6)  (* 1 C7)  (* 1 C8)  (* 1 C9) ) 1315 )  (<=  (+  (* 11 C1)  (* 6 C2)  (* 4 C3)  (* 2 C4)  (* 2 C5)  (* 1 C6)  (* 1 C7)  (* 1 C8)  (* 1 C9) ) 1380 )  (<=  (+  (* 11 C1)  (* 6 C2)  (* 5 C3)  (* 2 C4)  (* 2 C5)  (* 1 C6)  (* 1 C7)  (* 1 C8)  (* 1 C9) ) 1386 )  (<=  (+  (* 12 C1)  (* 6 C2)  (* 5 C3)  (* 2 C4)  (* 2 C5)  (* 1 C6)  (* 1 C7)  (* 1 C8)  (* 1 C9) ) 1406 )  (<=  (+  (* 12 C1)  (* 6 C2)  (* 5 C3)  (* 3 C4)  (* 2 C5)  (* 1 C6)  (* 1 C7)  (* 1 C8)  (* 1 C9) ) 1512 )  (<=  (+  (* 13 C1)  (* 6 C2)  (* 5 C3)  (* 3 C4)  (* 2 C5)  (* 1 C6)  (* 1 C7)  (* 1 C8)  (* 1 C9) ) 1578 )  (<=  (+  (* 13 C1)  (* 7 C2)  (* 5 C3)  (* 3 C4)  (* 2 C5)  (* 1 C6)  (* 1 C7)  (* 1 C8)  (* 1 C9) ) 1638 )  (<=  (+  (* 14 C1)  (* 7 C2)  (* 5 C3)  (* 3 C4)  (* 2 C5)  (* 1 C6)  (* 1 C7)  (* 1 C8)  (* 1 C9) ) 1725 )  (<=  (+  (* 14 C1)  (* 7 C2)  (* 6 C3)  (* 3 C4)  (* 2 C5)  (* 1 C6)  (* 1 C7)  (* 1 C8)  (* 1 C9) ) 1764 )  (<=  (+  (* 15 C1)  (* 7 C2)  (* 6 C3)  (* 3 C4)  (* 2 C5)  (* 1 C6)  (* 1 C7)  (* 1 C8)  (* 1 C9) ) 1798 )  (<=  (+  (* 15 C1)  (* 7 C2)  (* 6 C3)  (* 3 C4)  (* 2 C5)  (* 2 C6)  (* 1 C7)  (* 1 C8)  (* 1 C9) ) 1841 )  (<=  (+  (* 16 C1)  (* 8 C2)  (* 6 C3)  (* 3 C4)  (* 2 C5)  (* 2 C6)  (* 1 C7)  (* 1 C8)  (* 1 C9) ) 2016 )  (<=  (+  (* 17 C1)  (* 8 C2)  (* 6 C3)  (* 3 C4)  (* 2 C5)  (* 2 C6)  (* 1 C7)  (* 1 C8)  (* 1 C9) ) 2070 )  (<=  (+  (* 17 C1)  (* 8 C2)  (* 7 C3)  (* 3 C4)  (* 2 C5)  (* 2 C6)  (* 1 C7)  (* 1 C8)  (* 1 C9) ) 2104 )  (<=  (+  (* 17 C1)  (* 9 C2)  (* 7 C3)  (* 3 C4)  (* 2 C5)  (* 2 C6)  (* 1 C7)  (* 1 C8)  (* 1 C9) ) 2109 )  (<=  (+  (* 18 C1)  (* 9 C2)  (* 7 C3)  (* 4 C4)  (* 2 C5)  (* 2 C6)  (* 1 C7)  (* 1 C8)  (* 1 C9) ) 2268 )  (<=  (+  (* 19 C1)  (* 9 C2)  (* 7 C3)  (* 4 C4)  (* 2 C5)  (* 2 C6)  (* 1 C7)  (* 1 C8)  (* 1 C9) ) 2367 )  (<=  (+  (* 19 C1)  (* 10 C2)  (* 7 C3)  (* 4 C4)  (* 2 C5)  (* 2 C6)  (* 1 C7)  (* 1 C8)  (* 1 C9) ) 2394 )  (<=  (+  (* 20 C1)  (* 10 C2)  (* 7 C3)  (* 4 C4)  (* 2 C5)  (* 2 C6)  (* 1 C7)  (* 1 C8)  (* 1 C9) ) 2415 )  (<=  (+  (* 20 C1)  (* 10 C2)  (* 8 C3)  (* 4 C4)  (* 2 C5)  (* 2 C6)  (* 1 C7)  (* 1 C8)  (* 1 C9) ) 2424 )  (<=  (+  (* 20 C1)  (* 10 C2)  (* 8 C3)  (* 4 C4)  (* 3 C5)  (* 2 C6)  (* 1 C7)  (* 1 C8)  (* 1 C9) ) 2520 )  (<=  (+  (* 21 C1)  (* 10 C2)  (* 8 C3)  (* 4 C4)  (* 3 C5)  (* 2 C6)  (* 1 C7)  (* 1 C8)  (* 1 C9) ) 2630 )  (<=  (+  (* 21 C1)  (* 11 C2)  (* 8 C3)  (* 4 C4)  (* 3 C5)  (* 2 C6)  (* 1 C7)  (* 1 C8)  (* 1 C9) ) 2646 )  (<=  (+  (* 22 C1)  (* 11 C2)  (* 8 C3)  (* 4 C4)  (* 3 C5)  (* 2 C6)  (* 1 C7)  (* 1 C8)  (* 1 C9) ) 2760 )  (<=  (+  (* 22 C1)  (* 11 C2)  (* 9 C3)  (* 4 C4)  (* 3 C5)  (* 2 C6)  (* 1 C7)  (* 1 C8)  (* 1 C9) ) 2772 )  (<=  (+  (* 23 C1)  (* 11 C2)  (* 9 C3)  (* 4 C4)  (* 3 C5)  (* 2 C6)  (* 1 C7)  (* 1 C8)  (* 1 C9) ) 2812 )  (<=  (+  (* 23 C1)  (* 11 C2)  (* 9 C3)  (* 5 C4)  (* 3 C5)  (* 2 C6)  (* 1 C7)  (* 1 C8)  (* 1 C9) ) 2893 )  (<=  (+  (* 23 C1)  (* 12 C2)  (* 9 C3)  (* 5 C4)  (* 3 C5)  (* 2 C6)  (* 1 C7)  (* 1 C8)  (* 1 C9) ) 2897 )  (<=  (+  (* 27 C1)  (* 13 C2)  (* 10 C3)  (* 5 C4)  (* 3 C5)  (* 2 C6)  (* 2 C7)  (* 1 C8)  (* 1 C9) ) 3402 )  (<=  (+  (* 28 C1)  (* 13 C2)  (* 10 C3)  (* 5 C4)  (* 3 C5)  (* 2 C6)  (* 2 C7)  (* 1 C8)  (* 1 C9) ) 3419 )  (<=  (+  (* 28 C1)  (* 14 C2)  (* 10 C3)  (* 5 C4)  (* 3 C5)  (* 2 C6)  (* 2 C7)  (* 1 C8)  (* 1 C9) ) 3450 )  (<=  (+  (* 28 C1)  (* 14 C2)  (* 11 C3)  (* 5 C4)  (* 3 C5)  (* 2 C6)  (* 2 C7)  (* 1 C8)  (* 1 C9) ) 3515 )  (<=  (+  (* 28 C1)  (* 14 C2)  (* 11 C3)  (* 6 C4)  (* 3 C5)  (* 2 C6)  (* 2 C7)  (* 1 C8)  (* 1 C9) ) 3528 )  (<=  (+  (* 29 C1)  (* 14 C2)  (* 11 C3)  (* 6 C4)  (* 3 C5)  (* 2 C6)  (* 2 C7)  (* 1 C8)  (* 1 C9) ) 3596 )  (<=  (+  (* 29 C1)  (* 14 C2)  (* 11 C3)  (* 6 C4)  (* 3 C5)  (* 3 C6)  (* 2 C7)  (* 1 C8)  (* 1 C9) ) 3636 )  (<=  (+  (* 29 C1)  (* 14 C2)  (* 11 C3)  (* 6 C4)  (* 4 C5)  (* 3 C6)  (* 2 C7)  (* 1 C8)  (* 1 C9) ) 3654 )  (<=  (+  (* 30 C1)  (* 14 C2)  (* 11 C3)  (* 6 C4)  (* 4 C5)  (* 3 C6)  (* 2 C7)  (* 1 C8)  (* 1 C9) ) 3682 )  (<=  (+  (* 30 C1)  (* 15 C2)  (* 11 C3)  (* 6 C4)  (* 4 C5)  (* 3 C6)  (* 2 C7)  (* 1 C8)  (* 1 C9) ) 3780 )  (<=  (+  (* 31 C1)  (* 15 C2)  (* 11 C3)  (* 6 C4)  (* 4 C5)  (* 3 C6)  (* 2 C7)  (* 1 C8)  (* 1 C9) ) 3795 )  (<=  (+  (* 31 C1)  (* 15 C2)  (* 12 C3)  (* 6 C4)  (* 4 C5)  (* 3 C6)  (* 2 C7)  (* 1 C8)  (* 1 C9) ) 3906 )  (<=  (+  (* 32 C1)  (* 15 C2)  (* 12 C3)  (* 6 C4)  (* 4 C5)  (* 3 C6)  (* 2 C7)  (* 1 C8)  (* 1 C9) ) 3945 )  (<=  (+  (* 32 C1)  (* 16 C2)  (* 12 C3)  (* 6 C4)  (* 4 C5)  (* 3 C6)  (* 2 C7)  (* 1 C8)  (* 1 C9) ) 4032 )  (<=  (+  (* 33 C1)  (* 16 C2)  (* 12 C3)  (* 6 C4)  (* 4 C5)  (* 3 C6)  (* 2 C7)  (* 1 C8)  (* 1 C9) ) 4115 )  (<=  (+  (* 33 C1)  (* 16 C2)  (* 12 C3)  (* 6 C4)  (* 4 C5)  (* 3 C6)  (* 2 C7)  (* 2 C8)  (* 1 C9) ) 4140 )  (<=  (+  (* 33 C1)  (* 16 C2)  (* 13 C3)  (* 6 C4)  (* 4 C5)  (* 3 C6)  (* 2 C7)  (* 2 C8)  (* 1 C9) ) 4158 )  (<=  (+  (* 34 C1)  (* 16 C2)  (* 13 C3)  (* 6 C4)  (* 4 C5)  (* 3 C6)  (* 2 C7)  (* 2 C8)  (* 1 C9) ) 4208 )  (<=  (+  (* 34 C1)  (* 17 C2)  (* 13 C3)  (* 6 C4)  (* 4 C5)  (* 3 C6)  (* 2 C7)  (* 2 C8)  (* 1 C9) ) 4218 )  (<=  (+  (* 35 C1)  (* 17 C2)  (* 13 C3)  (* 7 C4)  (* 4 C5)  (* 3 C6)  (* 2 C7)  (* 2 C8)  (* 1 C9) ) 4410 )  (<=  (+  (* 36 C1)  (* 17 C2)  (* 13 C3)  (* 7 C4)  (* 4 C5)  (* 3 C6)  (* 2 C7)  (* 2 C8)  (* 1 C9) ) 4471 )  (<=  (+  (* 36 C1)  (* 18 C2)  (* 13 C3)  (* 7 C4)  (* 4 C5)  (* 3 C6)  (* 2 C7)  (* 2 C8)  (* 1 C9) ) 4485 )  (<=  (+  (* 37 C1)  (* 18 C2)  (* 14 C3)  (* 7 C4)  (* 4 C5)  (* 3 C6)  (* 2 C7)  (* 2 C8)  (* 1 C9) ) 4662 )  (<=  (+  (* 38 C1)  (* 18 C2)  (* 14 C3)  (* 7 C4)  (* 4 C5)  (* 3 C6)  (* 2 C7)  (* 2 C8)  (* 1 C9) ) 4714 ) ) ( or  (<=  (+  (* 4 C1)  (* 2 C2)  (* 2 C3)  (* 1 C4)  (* 1 C5)  (* 1 C6)  (* 1 C7)  (* 1 C8) ) 504 )  (<=  (+  (* 5 C1)  (* 2 C2)  (* 2 C3)  (* 1 C4)  (* 1 C5)  (* 1 C6)  (* 1 C7)  (* 1 C8) ) 526 )  (<=  (+  (* 5 C1)  (* 3 C2)  (* 2 C3)  (* 1 C4)  (* 1 C5)  (* 1 C6)  (* 1 C7)  (* 1 C8) ) 630 )  (<=  (+  (* 6 C1)  (* 3 C2)  (* 2 C3)  (* 1 C4)  (* 1 C5)  (* 1 C6)  (* 1 C7)  (* 1 C8) ) 690 )  (<=  (+  (* 6 C1)  (* 3 C2)  (* 3 C3)  (* 1 C4)  (* 1 C5)  (* 1 C6)  (* 1 C7)  (* 1 C8) ) 703 )  (<=  (+  (* 6 C1)  (* 3 C2)  (* 3 C3)  (* 2 C4)  (* 1 C5)  (* 1 C6)  (* 1 C7)  (* 1 C8) ) 756 )  (<=  (+  (* 7 C1)  (* 3 C2)  (* 3 C3)  (* 2 C4)  (* 1 C5)  (* 1 C6)  (* 1 C7)  (* 1 C8) ) 789 )  (<=  (+  (* 8 C1)  (* 4 C2)  (* 3 C3)  (* 2 C4)  (* 1 C5)  (* 1 C6)  (* 1 C7)  (* 1 C8) ) 1008 )  (<=  (+  (* 9 C1)  (* 4 C2)  (* 3 C3)  (* 2 C4)  (* 1 C5)  (* 1 C6)  (* 1 C7)  (* 1 C8) ) 1035 )  (<=  (+  (* 9 C1)  (* 4 C2)  (* 4 C3)  (* 2 C4)  (* 1 C5)  (* 1 C6)  (* 1 C7)  (* 1 C8) ) 1052 )  (<=  (+  (* 9 C1)  (* 5 C2)  (* 4 C3)  (* 2 C4)  (* 1 C5)  (* 1 C6)  (* 1 C7)  (* 1 C8) ) 1134 )  (<=  (+  (* 10 C1)  (* 5 C2)  (* 4 C3)  (* 2 C4)  (* 1 C5)  (* 1 C6)  (* 1 C7)  (* 1 C8) ) 1212 )  (<=  (+  (* 10 C1)  (* 5 C2)  (* 4 C3)  (* 2 C4)  (* 2 C5)  (* 1 C6)  (* 1 C7)  (* 1 C8) ) 1260 )  (<=  (+  (* 11 C1)  (* 5 C2)  (* 4 C3)  (* 2 C4)  (* 2 C5)  (* 1 C6)  (* 1 C7)  (* 1 C8) ) 1315 )  (<=  (+  (* 11 C1)  (* 6 C2)  (* 4 C3)  (* 2 C4)  (* 2 C5)  (* 1 C6)  (* 1 C7)  (* 1 C8) ) 1380 )  (<=  (+  (* 11 C1)  (* 6 C2)  (* 5 C3)  (* 2 C4)  (* 2 C5)  (* 1 C6)  (* 1 C7)  (* 1 C8) ) 1386 )  (<=  (+  (* 12 C1)  (* 6 C2)  (* 5 C3)  (* 2 C4)  (* 2 C5)  (* 1 C6)  (* 1 C7)  (* 1 C8) ) 1406 )  (<=  (+  (* 12 C1)  (* 6 C2)  (* 5 C3)  (* 3 C4)  (* 2 C5)  (* 1 C6)  (* 1 C7)  (* 1 C8) ) 1512 )  (<=  (+  (* 13 C1)  (* 6 C2)  (* 5 C3)  (* 3 C4)  (* 2 C5)  (* 1 C6)  (* 1 C7)  (* 1 C8) ) 1578 )  (<=  (+  (* 13 C1)  (* 7 C2)  (* 5 C3)  (* 3 C4)  (* 2 C5)  (* 1 C6)  (* 1 C7)  (* 1 C8) ) 1638 )  (<=  (+  (* 14 C1)  (* 7 C2)  (* 5 C3)  (* 3 C4)  (* 2 C5)  (* 1 C6)  (* 1 C7)  (* 1 C8) ) 1725 )  (<=  (+  (* 14 C1)  (* 7 C2)  (* 6 C3)  (* 3 C4)  (* 2 C5)  (* 1 C6)  (* 1 C7)  (* 1 C8) ) 1764 )  (<=  (+  (* 15 C1)  (* 7 C2)  (* 6 C3)  (* 3 C4)  (* 2 C5)  (* 1 C6)  (* 1 C7)  (* 1 C8) ) 1798 )  (<=  (+  (* 15 C1)  (* 7 C2)  (* 6 C3)  (* 3 C4)  (* 2 C5)  (* 2 C6)  (* 1 C7)  (* 1 C8) ) 1841 )  (<=  (+  (* 16 C1)  (* 8 C2)  (* 6 C3)  (* 3 C4)  (* 2 C5)  (* 2 C6)  (* 1 C7)  (* 1 C8) ) 2016 )  (<=  (+  (* 17 C1)  (* 8 C2)  (* 6 C3)  (* 3 C4)  (* 2 C5)  (* 2 C6)  (* 1 C7)  (* 1 C8) ) 2070 )  (<=  (+  (* 17 C1)  (* 8 C2)  (* 7 C3)  (* 3 C4)  (* 2 C5)  (* 2 C6)  (* 1 C7)  (* 1 C8) ) 2104 )  (<=  (+  (* 17 C1)  (* 9 C2)  (* 7 C3)  (* 3 C4)  (* 2 C5)  (* 2 C6)  (* 1 C7)  (* 1 C8) ) 2109 )  (<=  (+  (* 18 C1)  (* 9 C2)  (* 7 C3)  (* 4 C4)  (* 2 C5)  (* 2 C6)  (* 1 C7)  (* 1 C8) ) 2268 )  (<=  (+  (* 19 C1)  (* 9 C2)  (* 7 C3)  (* 4 C4)  (* 2 C5)  (* 2 C6)  (* 1 C7)  (* 1 C8) ) 2367 )  (<=  (+  (* 19 C1)  (* 10 C2)  (* 7 C3)  (* 4 C4)  (* 2 C5)  (* 2 C6)  (* 1 C7)  (* 1 C8) ) 2394 )  (<=  (+  (* 20 C1)  (* 10 C2)  (* 7 C3)  (* 4 C4)  (* 2 C5)  (* 2 C6)  (* 1 C7)  (* 1 C8) ) 2415 )  (<=  (+  (* 20 C1)  (* 10 C2)  (* 8 C3)  (* 4 C4)  (* 2 C5)  (* 2 C6)  (* 1 C7)  (* 1 C8) ) 2424 )  (<=  (+  (* 20 C1)  (* 10 C2)  (* 8 C3)  (* 4 C4)  (* 3 C5)  (* 2 C6)  (* 1 C7)  (* 1 C8) ) 2520 )  (<=  (+  (* 21 C1)  (* 10 C2)  (* 8 C3)  (* 4 C4)  (* 3 C5)  (* 2 C6)  (* 1 C7)  (* 1 C8) ) 2630 )  (<=  (+  (* 21 C1)  (* 11 C2)  (* 8 C3)  (* 4 C4)  (* 3 C5)  (* 2 C6)  (* 1 C7)  (* 1 C8) ) 2646 )  (<=  (+  (* 22 C1)  (* 11 C2)  (* 8 C3)  (* 4 C4)  (* 3 C5)  (* 2 C6)  (* 1 C7)  (* 1 C8) ) 2760 )  (<=  (+  (* 22 C1)  (* 11 C2)  (* 9 C3)  (* 4 C4)  (* 3 C5)  (* 2 C6)  (* 1 C7)  (* 1 C8) ) 2772 )  (<=  (+  (* 23 C1)  (* 11 C2)  (* 9 C3)  (* 4 C4)  (* 3 C5)  (* 2 C6)  (* 1 C7)  (* 1 C8) ) 2812 )  (<=  (+  (* 23 C1)  (* 11 C2)  (* 9 C3)  (* 5 C4)  (* 3 C5)  (* 2 C6)  (* 1 C7)  (* 1 C8) ) 2893 )  (<=  (+  (* 23 C1)  (* 12 C2)  (* 9 C3)  (* 5 C4)  (* 3 C5)  (* 2 C6)  (* 1 C7)  (* 1 C8) ) 2897 )  (<=  (+  (* 27 C1)  (* 13 C2)  (* 10 C3)  (* 5 C4)  (* 3 C5)  (* 2 C6)  (* 2 C7)  (* 1 C8) ) 3402 )  (<=  (+  (* 28 C1)  (* 13 C2)  (* 10 C3)  (* 5 C4)  (* 3 C5)  (* 2 C6)  (* 2 C7)  (* 1 C8) ) 3419 )  (<=  (+  (* 28 C1)  (* 14 C2)  (* 10 C3)  (* 5 C4)  (* 3 C5)  (* 2 C6)  (* 2 C7)  (* 1 C8) ) 3450 )  (<=  (+  (* 28 C1)  (* 14 C2)  (* 11 C3)  (* 5 C4)  (* 3 C5)  (* 2 C6)  (* 2 C7)  (* 1 C8) ) 3515 )  (<=  (+  (* 28 C1)  (* 14 C2)  (* 11 C3)  (* 6 C4)  (* 3 C5)  (* 2 C6)  (* 2 C7)  (* 1 C8) ) 3528 )  (<=  (+  (* 29 C1)  (* 14 C2)  (* 11 C3)  (* 6 C4)  (* 3 C5)  (* 2 C6)  (* 2 C7)  (* 1 C8) ) 3596 )  (<=  (+  (* 29 C1)  (* 14 C2)  (* 11 C3)  (* 6 C4)  (* 3 C5)  (* 3 C6)  (* 2 C7)  (* 1 C8) ) 3636 )  (<=  (+  (* 29 C1)  (* 14 C2)  (* 11 C3)  (* 6 C4)  (* 4 C5)  (* 3 C6)  (* 2 C7)  (* 1 C8) ) 3654 )  (<=  (+  (* 30 C1)  (* 14 C2)  (* 11 C3)  (* 6 C4)  (* 4 C5)  (* 3 C6)  (* 2 C7)  (* 1 C8) ) 3682 )  (<=  (+  (* 30 C1)  (* 15 C2)  (* 11 C3)  (* 6 C4)  (* 4 C5)  (* 3 C6)  (* 2 C7)  (* 1 C8) ) 3780 )  (<=  (+  (* 31 C1)  (* 15 C2)  (* 11 C3)  (* 6 C4)  (* 4 C5)  (* 3 C6)  (* 2 C7)  (* 1 C8) ) 3795 )  (<=  (+  (* 31 C1)  (* 15 C2)  (* 12 C3)  (* 6 C4)  (* 4 C5)  (* 3 C6)  (* 2 C7)  (* 1 C8) ) 3906 )  (<=  (+  (* 32 C1)  (* 15 C2)  (* 12 C3)  (* 6 C4)  (* 4 C5)  (* 3 C6)  (* 2 C7)  (* 1 C8) ) 3945 )  (<=  (+  (* 32 C1)  (* 16 C2)  (* 12 C3)  (* 6 C4)  (* 4 C5)  (* 3 C6)  (* 2 C7)  (* 1 C8) ) 4032 )  (<=  (+  (* 33 C1)  (* 16 C2)  (* 12 C3)  (* 6 C4)  (* 4 C5)  (* 3 C6)  (* 2 C7)  (* 1 C8) ) 4115 ) ) ( or  (<=  (+  (* 4 C1)  (* 2 C2)  (* 2 C3)  (* 1 C4)  (* 1 C5)  (* 1 C6)  (* 1 C7) ) 504 )  (<=  (+  (* 5 C1)  (* 2 C2)  (* 2 C3)  (* 1 C4)  (* 1 C5)  (* 1 C6)  (* 1 C7) ) 526 )  (<=  (+  (* 5 C1)  (* 3 C2)  (* 2 C3)  (* 1 C4)  (* 1 C5)  (* 1 C6)  (* 1 C7) ) 630 )  (<=  (+  (* 6 C1)  (* 3 C2)  (* 2 C3)  (* 1 C4)  (* 1 C5)  (* 1 C6)  (* 1 C7) ) 690 )  (<=  (+  (* 6 C1)  (* 3 C2)  (* 3 C3)  (* 1 C4)  (* 1 C5)  (* 1 C6)  (* 1 C7) ) 703 )  (<=  (+  (* 6 C1)  (* 3 C2)  (* 3 C3)  (* 2 C4)  (* 1 C5)  (* 1 C6)  (* 1 C7) ) 756 )  (<=  (+  (* 7 C1)  (* 3 C2)  (* 3 C3)  (* 2 C4)  (* 1 C5)  (* 1 C6)  (* 1 C7) ) 789 )  (<=  (+  (* 8 C1)  (* 4 C2)  (* 3 C3)  (* 2 C4)  (* 1 C5)  (* 1 C6)  (* 1 C7) ) 1008 )  (<=  (+  (* 9 C1)  (* 4 C2)  (* 3 C3)  (* 2 C4)  (* 1 C5)  (* 1 C6)  (* 1 C7) ) 1035 )  (<=  (+  (* 9 C1)  (* 4 C2)  (* 4 C3)  (* 2 C4)  (* 1 C5)  (* 1 C6)  (* 1 C7) ) 1052 )  (<=  (+  (* 9 C1)  (* 5 C2)  (* 4 C3)  (* 2 C4)  (* 1 C5)  (* 1 C6)  (* 1 C7) ) 1134 )  (<=  (+  (* 10 C1)  (* 5 C2)  (* 4 C3)  (* 2 C4)  (* 1 C5)  (* 1 C6)  (* 1 C7) ) 1212 )  (<=  (+  (* 10 C1)  (* 5 C2)  (* 4 C3)  (* 2 C4)  (* 2 C5)  (* 1 C6)  (* 1 C7) ) 1260 )  (<=  (+  (* 11 C1)  (* 5 C2)  (* 4 C3)  (* 2 C4)  (* 2 C5)  (* 1 C6)  (* 1 C7) ) 1315 )  (<=  (+  (* 11 C1)  (* 6 C2)  (* 4 C3)  (* 2 C4)  (* 2 C5)  (* 1 C6)  (* 1 C7) ) 1380 )  (<=  (+  (* 11 C1)  (* 6 C2)  (* 5 C3)  (* 2 C4)  (* 2 C5)  (* 1 C6)  (* 1 C7) ) 1386 )  (<=  (+  (* 12 C1)  (* 6 C2)  (* 5 C3)  (* 2 C4)  (* 2 C5)  (* 1 C6)  (* 1 C7) ) 1406 )  (<=  (+  (* 12 C1)  (* 6 C2)  (* 5 C3)  (* 3 C4)  (* 2 C5)  (* 1 C6)  (* 1 C7) ) 1512 )  (<=  (+  (* 13 C1)  (* 6 C2)  (* 5 C3)  (* 3 C4)  (* 2 C5)  (* 1 C6)  (* 1 C7) ) 1578 )  (<=  (+  (* 13 C1)  (* 7 C2)  (* 5 C3)  (* 3 C4)  (* 2 C5)  (* 1 C6)  (* 1 C7) ) 1638 )  (<=  (+  (* 14 C1)  (* 7 C2)  (* 5 C3)  (* 3 C4)  (* 2 C5)  (* 1 C6)  (* 1 C7) ) 1725 )  (<=  (+  (* 14 C1)  (* 7 C2)  (* 6 C3)  (* 3 C4)  (* 2 C5)  (* 1 C6)  (* 1 C7) ) 1764 )  (<=  (+  (* 15 C1)  (* 7 C2)  (* 6 C3)  (* 3 C4)  (* 2 C5)  (* 1 C6)  (* 1 C7) ) 1798 )  (<=  (+  (* 15 C1)  (* 7 C2)  (* 6 C3)  (* 3 C4)  (* 2 C5)  (* 2 C6)  (* 1 C7) ) 1841 )  (<=  (+  (* 16 C1)  (* 8 C2)  (* 6 C3)  (* 3 C4)  (* 2 C5)  (* 2 C6)  (* 1 C7) ) 2016 )  (<=  (+  (* 17 C1)  (* 8 C2)  (* 6 C3)  (* 3 C4)  (* 2 C5)  (* 2 C6)  (* 1 C7) ) 2070 )  (<=  (+  (* 17 C1)  (* 8 C2)  (* 7 C3)  (* 3 C4)  (* 2 C5)  (* 2 C6)  (* 1 C7) ) 2104 )  (<=  (+  (* 17 C1)  (* 9 C2)  (* 7 C3)  (* 3 C4)  (* 2 C5)  (* 2 C6)  (* 1 C7) ) 2109 )  (<=  (+  (* 18 C1)  (* 9 C2)  (* 7 C3)  (* 4 C4)  (* 2 C5)  (* 2 C6)  (* 1 C7) ) 2268 )  (<=  (+  (* 19 C1)  (* 9 C2)  (* 7 C3)  (* 4 C4)  (* 2 C5)  (* 2 C6)  (* 1 C7) ) 2367 )  (<=  (+  (* 19 C1)  (* 10 C2)  (* 7 C3)  (* 4 C4)  (* 2 C5)  (* 2 C6)  (* 1 C7) ) 2394 )  (<=  (+  (* 20 C1)  (* 10 C2)  (* 7 C3)  (* 4 C4)  (* 2 C5)  (* 2 C6)  (* 1 C7) ) 2415 )  (<=  (+  (* 20 C1)  (* 10 C2)  (* 8 C3)  (* 4 C4)  (* 2 C5)  (* 2 C6)  (* 1 C7) ) 2424 )  (<=  (+  (* 20 C1)  (* 10 C2)  (* 8 C3)  (* 4 C4)  (* 3 C5)  (* 2 C6)  (* 1 C7) ) 2520 )  (<=  (+  (* 21 C1)  (* 10 C2)  (* 8 C3)  (* 4 C4)  (* 3 C5)  (* 2 C6)  (* 1 C7) ) 2630 )  (<=  (+  (* 21 C1)  (* 11 C2)  (* 8 C3)  (* 4 C4)  (* 3 C5)  (* 2 C6)  (* 1 C7) ) 2646 )  (<=  (+  (* 22 C1)  (* 11 C2)  (* 8 C3)  (* 4 C4)  (* 3 C5)  (* 2 C6)  (* 1 C7) ) 2760 )  (<=  (+  (* 22 C1)  (* 11 C2)  (* 9 C3)  (* 4 C4)  (* 3 C5)  (* 2 C6)  (* 1 C7) ) 2772 )  (<=  (+  (* 23 C1)  (* 11 C2)  (* 9 C3)  (* 4 C4)  (* 3 C5)  (* 2 C6)  (* 1 C7) ) 2812 )  (<=  (+  (* 23 C1)  (* 11 C2)  (* 9 C3)  (* 5 C4)  (* 3 C5)  (* 2 C6)  (* 1 C7) ) 2893 )  (<=  (+  (* 23 C1)  (* 12 C2)  (* 9 C3)  (* 5 C4)  (* 3 C5)  (* 2 C6)  (* 1 C7) ) 2897 ) ) ( or  (<=  (+  (* 4 C1)  (* 2 C2)  (* 2 C3)  (* 1 C4)  (* 1 C5)  (* 1 C6) ) 504 )  (<=  (+  (* 5 C1)  (* 2 C2)  (* 2 C3)  (* 1 C4)  (* 1 C5)  (* 1 C6) ) 526 )  (<=  (+  (* 5 C1)  (* 3 C2)  (* 2 C3)  (* 1 C4)  (* 1 C5)  (* 1 C6) ) 630 )  (<=  (+  (* 6 C1)  (* 3 C2)  (* 2 C3)  (* 1 C4)  (* 1 C5)  (* 1 C6) ) 690 )  (<=  (+  (* 6 C1)  (* 3 C2)  (* 3 C3)  (* 1 C4)  (* 1 C5)  (* 1 C6) ) 703 )  (<=  (+  (* 6 C1)  (* 3 C2)  (* 3 C3)  (* 2 C4)  (* 1 C5)  (* 1 C6) ) 756 )  (<=  (+  (* 7 C1)  (* 3 C2)  (* 3 C3)  (* 2 C4)  (* 1 C5)  (* 1 C6) ) 789 )  (<=  (+  (* 8 C1)  (* 4 C2)  (* 3 C3)  (* 2 C4)  (* 1 C5)  (* 1 C6) ) 1008 )  (<=  (+  (* 9 C1)  (* 4 C2)  (* 3 C3)  (* 2 C4)  (* 1 C5)  (* 1 C6) ) 1035 )  (<=  (+  (* 9 C1)  (* 4 C2)  (* 4 C3)  (* 2 C4)  (* 1 C5)  (* 1 C6) ) 1052 )  (<=  (+  (* 9 C1)  (* 5 C2)  (* 4 C3)  (* 2 C4)  (* 1 C5)  (* 1 C6) ) 1134 )  (<=  (+  (* 10 C1)  (* 5 C2)  (* 4 C3)  (* 2 C4)  (* 1 C5)  (* 1 C6) ) 1212 )  (<=  (+  (* 10 C1)  (* 5 C2)  (* 4 C3)  (* 2 C4)  (* 2 C5)  (* 1 C6) ) 1260 )  (<=  (+  (* 11 C1)  (* 5 C2)  (* 4 C3)  (* 2 C4)  (* 2 C5)  (* 1 C6) ) 1315 )  (<=  (+  (* 11 C1)  (* 6 C2)  (* 4 C3)  (* 2 C4)  (* 2 C5)  (* 1 C6) ) 1380 )  (<=  (+  (* 11 C1)  (* 6 C2)  (* 5 C3)  (* 2 C4)  (* 2 C5)  (* 1 C6) ) 1386 )  (<=  (+  (* 12 C1)  (* 6 C2)  (* 5 C3)  (* 2 C4)  (* 2 C5)  (* 1 C6) ) 1406 )  (<=  (+  (* 12 C1)  (* 6 C2)  (* 5 C3)  (* 3 C4)  (* 2 C5)  (* 1 C6) ) 1512 )  (<=  (+  (* 13 C1)  (* 6 C2)  (* 5 C3)  (* 3 C4)  (* 2 C5)  (* 1 C6) ) 1578 )  (<=  (+  (* 13 C1)  (* 7 C2)  (* 5 C3)  (* 3 C4)  (* 2 C5)  (* 1 C6) ) 1638 )  (<=  (+  (* 14 C1)  (* 7 C2)  (* 5 C3)  (* 3 C4)  (* 2 C5)  (* 1 C6) ) 1725 )  (<=  (+  (* 14 C1)  (* 7 C2)  (* 6 C3)  (* 3 C4)  (* 2 C5)  (* 1 C6) ) 1764 )  (<=  (+  (* 15 C1)  (* 7 C2)  (* 6 C3)  (* 3 C4)  (* 2 C5)  (* 1 C6) ) 1798 ) ) ( or  (<=  (+  (* 4 C1)  (* 2 C2)  (* 2 C3)  (* 1 C4)  (* 1 C5) ) 504 )  (<=  (+  (* 5 C1)  (* 2 C2)  (* 2 C3)  (* 1 C4)  (* 1 C5) ) 526 )  (<=  (+  (* 5 C1)  (* 3 C2)  (* 2 C3)  (* 1 C4)  (* 1 C5) ) 630 )  (<=  (+  (* 6 C1)  (* 3 C2)  (* 2 C3)  (* 1 C4)  (* 1 C5) ) 690 )  (<=  (+  (* 6 C1)  (* 3 C2)  (* 3 C3)  (* 1 C4)  (* 1 C5) ) 703 )  (<=  (+  (* 6 C1)  (* 3 C2)  (* 3 C3)  (* 2 C4)  (* 1 C5) ) 756 )  (<=  (+  (* 7 C1)  (* 3 C2)  (* 3 C3)  (* 2 C4)  (* 1 C5) ) 789 )  (<=  (+  (* 8 C1)  (* 4 C2)  (* 3 C3)  (* 2 C4)  (* 1 C5) ) 1008 )  (<=  (+  (* 9 C1)  (* 4 C2)  (* 3 C3)  (* 2 C4)  (* 1 C5) ) 1035 )  (<=  (+  (* 9 C1)  (* 4 C2)  (* 4 C3)  (* 2 C4)  (* 1 C5) ) 1052 )  (<=  (+  (* 9 C1)  (* 5 C2)  (* 4 C3)  (* 2 C4)  (* 1 C5) ) 1134 )  (<=  (+  (* 10 C1)  (* 5 C2)  (* 4 C3)  (* 2 C4)  (* 1 C5) ) 1212 ) ) ( or  (<=  (+  (* 4 C1)  (* 2 C2)  (* 2 C3)  (* 1 C4) ) 504 )  (<=  (+  (* 5 C1)  (* 2 C2)  (* 2 C3)  (* 1 C4) ) 526 )  (<=  (+  (* 5 C1)  (* 3 C2)  (* 2 C3)  (* 1 C4) ) 630 )  (<=  (+  (* 6 C1)  (* 3 C2)  (* 2 C3)  (* 1 C4) ) 690 )  (<=  (+  (* 6 C1)  (* 3 C2)  (* 3 C3)  (* 1 C4) ) 703 ) ) ( or  (<=  (+  (* 2 C1)  (* 1 C2)  (* 1 C3) ) 252 )  (<=  (+  (* 3 C1)  (* 1 C2)  (* 1 C3) ) 263 )  (<=  (+  (* 3 C1)  (* 2 C2)  (* 1 C3) ) 345 ) ) ( or  (<=  (+  (* 2 C1)  (* 1 C2) ) 252 )  (<=  (+  (* 3 C1)  (* 1 C2) ) 263 ) ) ( or  (<=  (* 1 C1)  126 ) )  (and (>= C1 1) (>= C2 2) (>= C3 3) (>= C4 7) (>= C5 12) (>= C6 17) (>= C7 28) (>= C8 41) (>= C9 47) (>= C10 47) )  (and (<= C1 54) (<= C2 114) (<= C3 149) (<= C4 304) (<= C5 525) (<= C6 779) (<= C7 1256) (<= C8 1785) (<= C9 2044) (<= C10 2074) ) (= y (+ (/ C1 126) (/ C2 263) (/ C3 345) (/ C4 703) (/ C5 1212) (/ C6 1798) (/ C7 2897) (/ C8 4115) (/ C9 4714) (/ C10 4783) )) ))
(maximize y)
(check-sat)
